27	0

0	2	3	2
5	2	4	5
9	2	4	5
6	2	6	7
8	2	6	7
5	1	9
2	2	8	9
9	1	10
8	1	10
4	2	11	12
9	2	13	14
1	2	13	14
10	2	15	16
10	2	15	16
4	2	17	18
1	2	17	18
9	2	19	20
9	2	19	20
5	1	21
8	1	21
4	1	22
7	2	23	24
9	1	25
5	1	25
8	1	26
7	1	27
0	0
